NAME: tsp30_5
COMMENT: 30-tsp problem (Padberg/Rinaldi)
TYPE: TSP
DIMENSION: 30
EDGE_WEIGHT_TYPE : EUC_2D
NODE_COORD_SECTION
1 11 18
2 26 8
3 1 35
4 24 38
5 40 24
6 27 16
7 10 5
8 2 0
9 24 32
10 39 33
11 1 32
12 37 36
13 4 20
14 29 13
15 23 13
16 0 29
17 34 23
18 19 24
19 1 4
20 39 5
21 18 39
22 1 33
23 28 13
24 37 26
25 32 24
26 2 25
27 21 4
28 24 7
29 17 35
30 17 8
